50 5000
995 945
259 242
258 244
279 281
576 582
126 119
280 303
859 913
270 279
389 408
927 925
281 305
624 662
961 938
757 718
231 250
838 767
154 158
649 595
277 268
180 167
895 957
23 22
930 948
93 102
61 62
626 604
342 349
262 279
215 221
183 203
958 889
205 213
859 835
171 166
566 575
779 758
704 706
196 182
26 28
726 729
621 671
800 864
580 579
535 553
647 632
168 163
90 95
679 745
440 438
